(set-info :smt-lib-version 2.6)
(set-logic QF_NIA)
(set-info :source |
Generated by: Cristina Borralleras, Daniel Larraz, Albert Oliveras, Enric Rodriguez-Carbonell, Albert Rubio
Generated on: 2017-04-27
Generator: VeryMax
Application: Termination proving
Target solver: barcelogic
|)
(set-info :license "https://creativecommons.org/licenses/by/4.0/")
(set-info :category "industrial")
(set-info :status unknown)
(declare-fun Nl1x^01 () Int)
(declare-fun Nl1y^01 () Int)
(declare-fun Nl1x^02 () Int)
(declare-fun Nl1y^02 () Int)
(declare-fun lam0n0 () Int)
(declare-fun lam0n1 () Int)
(declare-fun lam0n2 () Int)
(declare-fun Nl1CT1 () Int)
(declare-fun Nl1CT2 () Int)
(declare-fun lam1n0 () Int)
(declare-fun lam1n1 () Int)
(declare-fun lam1n2 () Int)
(declare-fun lam2n0 () Int)
(declare-fun lam2n1 () Int)
(declare-fun lam2n2 () Int)
(declare-fun lam3n0 () Int)
(declare-fun lam3n1 () Int)
(declare-fun lam4n0 () Int)
(declare-fun lam4n1 () Int)
(declare-fun x^0 () Int)
(declare-fun y^0 () Int)
(declare-fun lam8n0 () Int)
(declare-fun lam8n1 () Int)
(declare-fun lam8n2 () Int)
(declare-fun RFN1_CT () Int)
(declare-fun RFN1_x^0 () Int)
(declare-fun RFN1_y^0 () Int)
(declare-fun lam6n0 () Int)
(declare-fun lam6n1 () Int)
(declare-fun lam6n2 () Int)
(declare-fun lam7n0 () Int)
(declare-fun lam7n1 () Int)
(declare-fun lam7n2 () Int)
(declare-fun lam5n0 () Int)
(declare-fun lam5n1 () Int)
(declare-fun lam5n2 () Int)
(assert ( and ( <= ( - 1 ) Nl1x^01 ) ( <= Nl1x^01 1 ) ( <= ( - 1 ) Nl1y^01 ) ( <= Nl1y^01 1 ) ( <= ( - 1 ) Nl1x^02 ) ( <= Nl1x^02 1 ) ( <= ( - 1 ) Nl1y^02 ) ( <= Nl1y^02 1 ) ))
(assert ( or ( and ( >= lam0n0 0 ) ( >= lam0n1 0 ) ( >= lam0n2 0 ) ( > ( + ( * Nl1CT1 lam0n1 ) ( * Nl1CT2 lam0n2 ) ( - 1 ) ) 0 ) ( = ( + ( * ( - 1 ) lam0n0 ) ( * Nl1x^01 lam0n1 ) ( * Nl1x^02 lam0n2 ) ) 0 ) ( = ( + ( * Nl1y^01 lam0n1 ) ( * Nl1y^02 lam0n2 ) ) 0 ) ) ( and ( >= lam1n0 0 ) ( >= lam1n1 0 ) ( >= lam1n2 0 ) ( > ( + ( * Nl1CT1 lam1n1 ) ( * Nl1CT2 lam1n2 ) ( - 1 ( + Nl1CT1 ( * Nl1x^01 0 ) ) ) ) 0 ) ( = ( + ( * ( - 1 ) lam1n0 ) ( * Nl1x^01 lam1n1 ) ( * Nl1x^02 lam1n2 ) ( - ( + 0 ( * Nl1x^01 1 ) ) ) ) 0 ) ( = ( + ( * Nl1y^01 lam1n1 ) ( * Nl1y^02 lam1n2 ) ( - ( + ( + 0 ( * Nl1x^01 ( - 1 ) ) ) Nl1y^01 ) ) ) 0 ) ) ))
(assert ( or ( and ( >= lam0n0 0 ) ( >= lam0n1 0 ) ( >= lam0n2 0 ) ( > ( + ( * Nl1CT1 lam0n1 ) ( * Nl1CT2 lam0n2 ) ( - 1 ) ) 0 ) ( = ( + ( * ( - 1 ) lam0n0 ) ( * Nl1x^01 lam0n1 ) ( * Nl1x^02 lam0n2 ) ) 0 ) ( = ( + ( * Nl1y^01 lam0n1 ) ( * Nl1y^02 lam0n2 ) ) 0 ) ) ( and ( >= lam2n0 0 ) ( >= lam2n1 0 ) ( >= lam2n2 0 ) ( > ( + ( * Nl1CT1 lam2n1 ) ( * Nl1CT2 lam2n2 ) ( - 1 ( + Nl1CT2 ( * Nl1x^02 0 ) ) ) ) 0 ) ( = ( + ( * ( - 1 ) lam2n0 ) ( * Nl1x^01 lam2n1 ) ( * Nl1x^02 lam2n2 ) ( - ( + 0 ( * Nl1x^02 1 ) ) ) ) 0 ) ( = ( + ( * Nl1y^01 lam2n1 ) ( * Nl1y^02 lam2n2 ) ( - ( + ( + 0 ( * Nl1x^02 ( - 1 ) ) ) Nl1y^02 ) ) ) 0 ) ) ))
(assert ( and ( <= ( + 1 x^0 y^0 ) 0 ) ( <= ( + 1 ( * ( - 1 ) x^0 ) ) 0 ) ( <= ( + Nl1CT1 ( * ( + 0 Nl1x^01 ) x^0 ) ( * ( + 0 Nl1y^01 ) y^0 ) ) 0 ) ( <= ( + Nl1CT2 ( * ( + 0 Nl1x^02 ) x^0 ) ( * ( + 0 Nl1y^02 ) y^0 ) ) 0 ) ))
(assert ( or ( and ( and ( >= lam8n0 0 ) ( >= lam8n1 0 ) ( >= lam8n2 0 ) ( > ( + ( * Nl1CT1 lam8n1 ) ( * Nl1CT2 lam8n2 ) ( - 1 ( - ( + RFN1_CT ( * RFN1_x^0 0 ) ) RFN1_CT ) ) ) 0 ) ( = ( + ( * ( - 1 ) lam8n0 ) ( * Nl1x^01 lam8n1 ) ( * Nl1x^02 lam8n2 ) ( - ( - ( + 0 ( * RFN1_x^0 1 ) ) RFN1_x^0 ) ) ) 0 ) ( = ( + ( * Nl1y^01 lam8n1 ) ( * Nl1y^02 lam8n2 ) ( - ( - ( + ( + 0 ( * RFN1_x^0 ( - 1 ) ) ) RFN1_y^0 ) RFN1_y^0 ) ) ) 0 ) ) ( and ( and ( >= lam6n0 0 ) ( >= lam6n1 0 ) ( >= lam6n2 0 ) ( > ( + ( * Nl1CT1 lam6n1 ) ( * Nl1CT2 lam6n2 ) ( - 1 ( - RFN1_CT ) ) ) 0 ) ( = ( + ( * ( - 1 ) lam6n0 ) ( * Nl1x^01 lam6n1 ) ( * Nl1x^02 lam6n2 ) ( - ( - RFN1_x^0 ) ) ) 0 ) ( = ( + ( * Nl1y^01 lam6n1 ) ( * Nl1y^02 lam6n2 ) ( - ( - RFN1_y^0 ) ) ) 0 ) ) ( and ( >= lam7n0 0 ) ( >= lam7n1 0 ) ( >= lam7n2 0 ) ( > ( + ( * Nl1CT1 lam7n1 ) ( * Nl1CT2 lam7n2 ) ( - 1 ( + ( - ( + RFN1_CT ( * RFN1_x^0 0 ) ) RFN1_CT ) 1 ) ) ) 0 ) ( = ( + ( * ( - 1 ) lam7n0 ) ( * Nl1x^01 lam7n1 ) ( * Nl1x^02 lam7n2 ) ( - ( - ( + 0 ( * RFN1_x^0 1 ) ) RFN1_x^0 ) ) ) 0 ) ( = ( + ( * Nl1y^01 lam7n1 ) ( * Nl1y^02 lam7n2 ) ( - ( - ( + ( + 0 ( * RFN1_x^0 ( - 1 ) ) ) RFN1_y^0 ) RFN1_y^0 ) ) ) 0 ) ) ) ) ( and ( >= lam5n0 0 ) ( >= lam5n1 0 ) ( >= lam5n2 0 ) ( > ( + ( * Nl1CT1 lam5n1 ) ( * Nl1CT2 lam5n2 ) ( - 1 ) ) 0 ) ( = ( + ( * ( - 1 ) lam5n0 ) ( * Nl1x^01 lam5n1 ) ( * Nl1x^02 lam5n2 ) ) 0 ) ( = ( + ( * Nl1y^01 lam5n1 ) ( * Nl1y^02 lam5n2 ) ) 0 ) ) ))
(check-sat)
(exit)
